p cnf 10 60
-8 -4 -1 0
-8 -1 4 0
-10 -4 10 0
4 5 10 0
-2 -1 1 0
-2 2 10 0
-10 -1 10 0
-9 -8 1 0
-7 -3 -2 0
-3 -2 5 0
-10 -3 5 0
-10 3 5 0
-7 1 10 0
-5 1 8 0
-10 -9 3 0
-9 -1 9 0
-1 6 8 0
-2 7 8 0
-9 -8 5 0
-7 6 8 0
-10 -3 -1 0
-9 -7 -4 0
-10 -5 7 0
-10 6 9 0
-5 -3 -3 0
-8 -3 6 0
-7 -5 6 0
-8 -7 8 0
-10 -5 6 0
-2 4 7 0
-8 -1 8 0
-8 4 10 0
-4 -1 10 0
-8 -8 -7 0
1 7 9 0
7 8 10 0
-6 1 10 0
-7 -5 4 0
-4 3 8 0
-9 -5 -3 0
-7 -5 -3 0
-7 -3 6 0
-7 3 10 0
-9 -5 8 0
-6 1 3 0
-9 2 7 0
-8 -6 3 0
-6 7 8 0
-5 1 4 0
-9 -7 -6 0
-9 -2 10 0
-10 -3 8 0
-10 -5 8 0
-8 -2 -1 0
-8 3 10 0
-9 -1 4 0
-7 1 6 0
-2 1 4 0
-6 -3 1 0
-3 5 8 0
